p cnf 10 20
7 -5 2 0
-4 6 -10 0
9 -10 6 0
-7 1 8 0
10 3 -5 0
8 5 -2 0
-1 -7 5 0
7 3 2 0
3 -6 -8 0
-2 9 4 0
6 -1 5 0
6 -8 10 0
-5 -4 3 0
1 -3 -8 0
-1 5 -8 0
-1 -5 -3 0
9 5 -1 0
-4 8 6 0
3 7 6 0
5 8 -4 0
